RAW/CMTQ/fspd/CMT9Q.vrp_seed-3.out
1161.244379	13.056	29.487
