RAW/CMTQ/fspd/CMT9Q.vrp_seed-3.sol
Route #1: 12 144 145 142 109 149 4 146 56 47
Route #2: 60 26 113 114 99 43 86 97
Route #3: 68 132 98 24 96 95 25 58 14 133 139
Route #4: 77 32 51 22 101 3 59 20 131 83 2 100
Route #5: 119 1 120 80 70 28 31 82 140 8 81
Route #6: 122 125 106 73 117 89 39 54 10 5
Route #7: 27 138 48 112 61 7 69 23 57 6 102 46
Route #8: 103 90 71 123 124 33 72 91 45 15 52 108
Route #9: 37 137 44 107 65 93 42 92 147 17 63
Route #10: 110 18 55 134 67 13 136 66 111 135 143
Route #11: 38 62 9 34 74 75 105 30 104 49 76
Route #12: 78 50 130 118 21 79 29 129 53 127 16 126 11
Route #13: 116 121 115 36 85 35 84 128
Route #14: 87 150 19 64 88 40 94 41 141 148
Cost 1161.244379